problems/csplib-prob036/FixedLengthErrorCorrectingCodes-models/compact/O2/lingeling/model-lee4-solution000001.eprime-solution
language ESSENCE' 1.0

letting c_ExplicitR9_Function1D be
        [[1, 2, 3, 3, 2, 3; int(1..6)], [2, 1, 2, 2, 2, 2; int(1..6)], [2, 3, 2, 2, 1, 1; int(1..6)],
         [2, 3, 4, 2, 1, 4; int(1..6)], [2, 4, 1, 2, 4, 2; int(1..6)], [2, 4, 1, 3, 2, 1; int(1..6)],
         [3, 2, 4, 1, 1, 3; int(1..6)]; int(1..7)]
